instances/p2/p2_15_8-0.dzn
Alphabet = {A,C,G,T};
ns = 15;
nc = 8;
neighbours = [| I(C),I(A),Null,Null,Null,Null,Null,Null | I(T),I(G),I(C),I(A),I(G),Null,Null,Null | I(C),I(C),I(A),I(C),I(G),Null,Null,Null | I(T),I(T),I(T),I(A),I(A),I(T),I(C),Null | I(A),I(G),Null,Null,Null,Null,Null,Null | I(T),I(T),Null,Null,Null,Null,Null,Null | I(C),Null,Null,Null,Null,Null,Null,Null | I(G),I(C),I(C),I(T),I(C),Null,Null,Null | I(G),I(G),I(A),I(C),I(A),Null,Null,Null | I(C),I(C),I(C),I(G),I(G),I(A),Null,Null | Null,Null,Null,Null,Null,Null,Null,Null | I(G),I(C),I(T),I(A),I(G),I(G),Null,Null | I(C),Null,Null,Null,Null,Null,Null,Null | I(C),I(A),I(T),I(G),I(C),I(G),I(G),I(T) | I(G),I(G),I(G),I(T),I(T),I(G),I(G),I(G) |];
